p tdp 50 49
1 27
1 34
1 47
2 49
3 12
3 44
3 48
4 43
5 35
6 11
6 30
6 46
7 39
7 47
8 50
9 15
9 21
9 40
10 50
11 21
11 32
13 19
13 21
13 43
14 23
14 27
14 50
15 24
15 48
16 34
17 23
18 24
18 38
18 45
19 29
19 37
20 32
22 23
24 35
25 43
26 34
27 40
28 35
31 49
32 41
33 36
36 42
36 48
47 49
